NAME: berlin10
TYPE: TSP
COMMENT: 10 locations in Berlin (Groetschel)
DIMENSION: 10
EDGE_WEIGHT_TYPE: EUC_2D
NODE_COORD_SECTION
1 565.0 575.0
2 25.0 185.0
3 845.0 655.0
4 25.0 230.0
5 580.0 1175.0
6 1605.0 620.0
7 145.0 665.0
8 575.0 665.0
9 595.0 360.0
10 1740.0 245.0
EOF
